NAME : fat
COMMENT : Fattree
TYPE : TSP
DIMENSION : 20
EDGE_WEIGHT_TYPE : EXPLICIT
EDGE_WEIGHT_FORMAT : FULL_MATRIX
EDGE_WEIGHT_SECTION
0 1 999 999 1 999 999 999 999 999 999 999 999 999 999 999 999 999 999 1
1 0 999 999 999 999 999 999 999 999 999 999 999 999 999 999 999 999 1 999
999 999 0 1 999 999 999 999 999 999 999 1 999 999 999 999 999 999 999 999
999 999 1 0 999 999 999 999 999 999 999 999 999 999 999 999 999 999 999
1 999 999 999 0 999 999 999 999 999 999 999 999 999 999 999 999 999 999 1
999 999 999 999 999 0 999 999 999 999 1 999 999 999 999 999 999 1 999 999
999 999 999 999 999 999 0 1 999 999 999 999 999 999 999 999 999 999 999 999
999 999 999 999 999 999 1 0 999 999 999 1 999 999 999 999 999 999 999 999
999 999 999 999 999 999 999 999 0 999 1 999 999 999 999 999 999 999 999 999
999 999 999 999 999 999 999 999 999 0 999 999 999 999 999 999 999 999 999 999
999 999 999 999 999 1 999 999 1 999 0 999 999 999 999 999 999 999 999 999
999 999 1 999 999 999 999 1 999 999 999 0 1 999 999 999 999 999 999 999
999 999 999 999 999 999 999 999 999 999 999 1 0 1 999 999 999 999 999 999
999 999 999 999 999 999 999 999 999 999 999 999 1 0 1 999 999 999 999 999
999 999 999 999 999 999 999 999 999 999 999 999 999 1 0 1 999 999 999 999
999 999 999 999 999 999 999 999 999 999 999 999 999 999 1 0 1 999 999 999
999 999 999 999 999 999 999 999 999 999 999 999 999 999 999 1 0 1 999 999
999 999 999 999 999 1 999 999 999 999 999 999 999 999 999 999 1 0 1 999
999 1 999 999 999 999 999 999 999 999 999 999 999 999 999 999 999 1 0 1
1 999 999 999 1 999 999 999 999 999 999 999 999 999 999 999 999 999 1 0
EOF